TASK = {FUNDS, SOLDIERS, DEFENSE, WEAPONRY_ART, ELITEARMY, 
   RAW_MATERIALS, CRAFTSMEN, CASTING, BRICKS, WALL};

duration = [10,10,25,25,10,20,15,20,10,20];
p = 14; % number of precedences
pre = 
  [| FUNDS, SOLDIERS
   | FUNDS, RAW_MATERIALS
   | FUNDS, CRAFTSMEN
   | FUNDS, BRICKS
   | SOLDIERS, WEAPONRY_ART
   | SOLDIERS, DEFENSE
   | WEAPONRY_ART, ELITEARMY
   | DEFENSE, ELITEARMY
   | RAW_MATERIALS, CASTING
   | CRAFTSMEN, CASTING 
   | CRAFTSMEN, WALL
   | BRICKS, WALL 
   | CASTING, WEAPONRY_ART
   | WALL, DEFENSE |];

RESOURCE = {QUALITY, MILITARY, COMBAT};
L = [4, 4, 4];
res = [| 0, 0, 0, 0, 0, 3, 0, 2, 1, 2 
       | 0, 3, 0, 0, 0, 2, 2, 0, 1, 0
       | 0, 0, 2, 2, 1, 0, 0, 0, 0, 2 |];